c This Formular is generated by mcnf
c
c    horn? no 
c    forced? no 
c    mixed sat? no 
c    clause length = 3 
c
p cnf 20  91 
 -20 -5 17 0
-18 -4 -6 0
7 1 -4 0
19 -1 6 0
-16 -18 -1 0
4 11 -2 0
-10 -4 -3 0
-8 4 -16 0
-10 9 -19 0
5 6 10 0
2 5 -12 0
2 15 -1 0
-20 17 -2 0
-13 -17 19 0
-3 16 -14 0
13 2 20 0
2 7 20 0
20 10 -6 0
-12 16 10 0
-19 10 -17 0
8 -15 19 0
-12 1 -10 0
20 3 -9 0
18 15 -8 0
-9 4 6 0
-4 -1 2 0
-2 20 -14 0
-12 4 -2 0
-15 -2 7 0
1 -16 7 0
6 19 20 0
5 -17 15 0
-11 12 -3 0
18 8 19 0
14 5 4 0
10 16 20 0
12 -5 19 0
-13 -2 1 0
12 -16 -15 0
18 -14 -3 0
2 -4 8 0
%
0

69 12 91 72 85 11 74 36 16 19 43 62 53 54 28 1 92 36 92 25
